(set-logic QF_LIA)
(declare-fun x0 () Int)
(declare-fun x1 () Int)
(declare-fun x2 () Int)
(declare-fun x3 () Int)
(declare-fun x4 () Int)
(declare-fun x5 () Int)
(declare-fun x6 () Int)
(declare-fun x7 () Int)
(declare-fun x8 () Int)
(declare-fun x9 () Int)
(declare-fun A0 () Bool)
(declare-fun A1 () Bool)
(declare-fun A2 () Bool)
(declare-fun A3 () Bool)
(declare-fun A4 () Bool)
(declare-fun A5 () Bool)
(declare-fun A6 () Bool)
(declare-fun A7 () Bool)
(declare-fun A8 () Bool)
(declare-fun A9 () Bool)
(assert (let ((.def_0 (* (- 1) x5))) (let ((.def_1 (* (- 1) x0))) (let ((.def_2 (+ .def_1 .def_0))) (let ((.def_3 (< .def_2 1))) (let ((.def_4 (* (- 1) x3))) (let ((.def_5 (* (- 1) x7))) (let ((.def_6 (+ .def_5 .def_4))) (let ((.def_7 (< .def_6 (- 1)))) (let ((.def_8 (not .def_7))) (let ((.def_9 (= .def_8 .def_3))) (let ((.def_10 (or A2 A5))) (let ((.def_11 (= .def_10 .def_9))) (let ((.def_12 (not A4))) (let ((.def_13 (and .def_12 A7))) (let ((.def_14 (* 1 x8))) (let ((.def_15 (< .def_14 1))) (let ((.def_16 (or .def_12 .def_15))) (let ((.def_17 (or .def_16 .def_13))) (let ((.def_18 (or .def_17 .def_11))) (let ((.def_19 (* 1 x3))) (let ((.def_20 (+ .def_1 .def_19))) (let ((.def_21 (< .def_20 (- 1)))) (let ((.def_22 (* (- 1) x6))) (let ((.def_23 (* (- 1) x1))) (let ((.def_24 (+ .def_23 .def_22))) (let ((.def_25 (< .def_24 (- 1)))) (let ((.def_26 (not .def_25))) (let ((.def_27 (and .def_26 .def_21))) (let ((.def_28 (< .def_4 1))) (let ((.def_29 (* (- 1) x2))) (let ((.def_30 (* (- 1) x4))) (let ((.def_31 (+ .def_30 .def_29))) (let ((.def_32 (< .def_31 (- 1)))) (let ((.def_33 (or .def_32 .def_28))) (let ((.def_34 (not .def_33))) (let ((.def_35 (and .def_34 .def_27))) (let ((.def_36 (not .def_35))) (let ((.def_37 (< .def_29 (- 1)))) (let ((.def_38 (not .def_37))) (let ((.def_39 (not A3))) (let ((.def_40 (or .def_39 .def_38))) (let ((.def_41 (* 1 x5))) (let ((.def_42 (+ .def_23 .def_41))) (let ((.def_43 (< .def_42 (- 1)))) (let ((.def_44 (* (- 1) x8))) (let ((.def_45 (+ .def_19 .def_44))) (let ((.def_46 (< .def_45 (- 1)))) (let ((.def_47 (not .def_46))) (let ((.def_48 (and .def_47 .def_43))) (let ((.def_49 (or .def_48 .def_40))) (let ((.def_50 (not .def_49))) (let ((.def_51 (and .def_50 .def_36))) (let ((.def_52 (or .def_51 .def_18))) (let ((.def_53 (not A2))) (let ((.def_54 (or A8 .def_53))) (let ((.def_55 (not .def_54))) (let ((.def_56 (* 1 x1))) (let ((.def_57 (< .def_56 (- 1)))) (let ((.def_58 (or .def_57 A5))) (let ((.def_59 (not .def_58))) (let ((.def_60 (and .def_59 .def_55))) (let ((.def_61 (not .def_60))) (let ((.def_62 (not A7))) (let ((.def_63 (or A1 .def_62))) (let ((.def_64 (+ .def_23 .def_29))) (let ((.def_65 (< .def_64 1))) (let ((.def_66 (not .def_65))) (let ((.def_67 (and A0 .def_66))) (let ((.def_68 (not .def_67))) (let ((.def_69 (and .def_68 .def_63))) (let ((.def_70 (not .def_69))) (let ((.def_71 (or .def_70 .def_61))) (let ((.def_72 (+ .def_22 .def_4))) (let ((.def_73 (< .def_72 1))) (let ((.def_74 (+ .def_22 .def_1))) (let ((.def_75 (< .def_74 (- 1)))) (let ((.def_76 (not .def_75))) (let ((.def_77 (or .def_76 .def_73))) (let ((.def_78 (* 1 x6))) (let ((.def_79 (* 1 x0))) (let ((.def_80 (+ .def_79 .def_78))) (let ((.def_81 (< .def_80 1))) (let ((.def_82 (and A6 .def_81))) (let ((.def_83 (= .def_82 .def_77))) (let ((.def_84 (not A9))) (let ((.def_85 (and A2 .def_84))) (let ((.def_86 (not .def_85))) (let ((.def_87 (not A1))) (let ((.def_88 (* 1 x9))) (let ((.def_89 (< .def_88 (- 1)))) (let ((.def_90 (or .def_89 .def_87))) (let ((.def_91 (or .def_90 .def_86))) (let ((.def_92 (or .def_91 .def_83))) (let ((.def_93 (and .def_92 .def_71))) (let ((.def_94 (not .def_93))) (let ((.def_95 (and .def_94 .def_52))) (let ((.def_96 (not .def_95))) (let ((.def_97 (not A5))) (let ((.def_98 (not A0))) (let ((.def_99 (or .def_98 .def_97))) (let ((.def_100 (not A6))) (let ((.def_101 (and .def_12 .def_100))) (let ((.def_102 (= .def_101 .def_99))) (let ((.def_103 (* (- 1) x9))) (let ((.def_104 (< .def_103 (- 1)))) (let ((.def_105 (not .def_104))) (let ((.def_106 (or .def_105 .def_39))) (let ((.def_107 (+ .def_22 .def_5))) (let ((.def_108 (< .def_107 (- 1)))) (let ((.def_109 (not .def_108))) (let ((.def_110 (and .def_109 .def_98))) (let ((.def_111 (not .def_110))) (let ((.def_112 (or .def_111 .def_106))) (let ((.def_113 (and .def_112 .def_102))) (let ((.def_114 (not .def_113))) (let ((.def_115 (not A8))) (let ((.def_116 (and A0 .def_115))) (let ((.def_117 (= .def_39 .def_53))) (let ((.def_118 (not .def_117))) (let ((.def_119 (and .def_118 .def_116))) (let ((.def_120 (not .def_119))) (let ((.def_121 (+ .def_14 .def_88))) (let ((.def_122 (< .def_121 (- 1)))) (let ((.def_123 (< .def_1 (- 1)))) (let ((.def_124 (or .def_123 .def_122))) (let ((.def_125 (+ .def_4 .def_29))) (let ((.def_126 (< .def_125 (- 1)))) (let ((.def_127 (+ .def_56 .def_29))) (let ((.def_128 (< .def_127 (- 1)))) (let ((.def_129 (not .def_128))) (let ((.def_130 (or .def_129 .def_126))) (let ((.def_131 (and .def_130 .def_124))) (let ((.def_132 (not .def_131))) (let ((.def_133 (and .def_132 .def_120))) (let ((.def_134 (not .def_133))) (let ((.def_135 (and .def_134 .def_114))) (let ((.def_136 (not .def_135))) (let ((.def_137 (* 1 x4))) (let ((.def_138 (< .def_137 (- 1)))) (let ((.def_139 (not .def_138))) (let ((.def_140 (+ .def_19 .def_88))) (let ((.def_141 (< .def_140 (- 1)))) (let ((.def_142 (not .def_141))) (let ((.def_143 (or .def_142 .def_139))) (let ((.def_144 (< .def_44 1))) (let ((.def_145 (or A5 .def_144))) (let ((.def_146 (and .def_145 .def_143))) (let ((.def_147 (or .def_98 A9))) (let ((.def_148 (not .def_147))) (let ((.def_149 (+ .def_22 .def_88))) (let ((.def_150 (< .def_149 (- 1)))) (let ((.def_151 (or .def_37 .def_150))) (let ((.def_152 (not .def_151))) (let ((.def_153 (and .def_152 .def_148))) (let ((.def_154 (not .def_153))) (let ((.def_155 (and .def_154 .def_146))) (let ((.def_156 (not .def_155))) (let ((.def_157 (and .def_87 .def_97))) (let ((.def_158 (not .def_157))) (let ((.def_159 (< .def_14 (- 1)))) (let ((.def_160 (or .def_159 .def_39))) (let ((.def_161 (or .def_160 .def_158))) (let ((.def_162 (< .def_2 (- 1)))) (let ((.def_163 (= .def_28 .def_162))) (let ((.def_164 (not .def_163))) (let ((.def_165 (< .def_29 1))) (let ((.def_166 (+ .def_41 .def_137))) (let ((.def_167 (< .def_166 1))) (let ((.def_168 (and .def_167 .def_165))) (let ((.def_169 (not .def_168))) (let ((.def_170 (or .def_169 .def_164))) (let ((.def_171 (and .def_170 .def_161))) (let ((.def_172 (and .def_171 .def_156))) (let ((.def_173 (not .def_172))) (let ((.def_174 (or .def_173 .def_136))) (let ((.def_175 (not .def_174))) (let ((.def_176 (and .def_175 .def_96))) (let ((.def_177 (<= x9 1))) (let ((.def_178 (<= 0 x9))) (let ((.def_179 (<= x8 1))) (let ((.def_180 (<= 0 x8))) (let ((.def_181 (<= x7 1))) (let ((.def_182 (<= 0 x7))) (let ((.def_183 (<= x6 1))) (let ((.def_184 (<= 0 x6))) (let ((.def_185 (<= x5 1))) (let ((.def_186 (<= 0 x5))) (let ((.def_187 (<= x4 1))) (let ((.def_188 (<= 0 x4))) (let ((.def_189 (<= x3 1))) (let ((.def_190 (<= 0 x3))) (let ((.def_191 (<= x2 1))) (let ((.def_192 (<= 0 x2))) (let ((.def_193 (<= x1 1))) (let ((.def_194 (<= 0 x1))) (let ((.def_195 (<= x0 1))) (let ((.def_196 (<= 0 x0))) (let ((.def_197 (and .def_196 .def_195 .def_194 .def_193 .def_192 .def_191 .def_190 .def_189 .def_188 .def_187 .def_186 .def_185 .def_184 .def_183 .def_182 .def_181 .def_180 .def_179 .def_178 .def_177 .def_176))) .def_197)))))))))))))))))))))))))))))))))))))))))))))))))))))))))))))))))))))))))))))))))))))))))))))))))))))))))))))))))))))))))))))))))))))))))))))))))))))))))))))))))))))))))))))))))))))))))))))))))))))))
(check-sat)
